% File represents an instance of a Composite Structure problem to be solved by a CP framework
% Created on 2025-03-26 10:41:39.955
T = 54;
n = 25;
m = 40;
edges = [(2, 1),
(6, 7),
(12, 11),
(16, 17),
(22, 21),
(2, 3),
(8, 7),
(12, 13),
(18, 17),
(22, 23),
(4, 3),
(9, 8),
(14, 13),
(18, 19),
(23, 24),
(4, 5),
(9, 10),
(14, 15),
(19, 20),
(25, 24),
(6, 1),
(6, 11),
(16, 11),
(16, 21),
(2, 7),
(12, 7),
(12, 17),
(22, 17),
(8, 3),
(8, 13),
(18, 13),
(18, 23),
(9, 4),
(9, 14),
(14, 19),
(19, 24),
(10, 5),
(10, 15),
(15, 20),
(25, 20)];
counts = [|8, 16, 8, 12,
|8, 16, 8, 16,
|8, 16, 8, 14,
|8, 16, 8, 16,
|6, 14, 6, 16,
|8, 16, 8, 16,
|8, 16, 8, 14,
|10, 18, 10, 14,
|10, 18, 10, 16,
|8, 16, 8, 16,
|8, 14, 8, 16,
|8, 16, 8, 16,
|8, 16, 8, 14,
|8, 16, 8, 16,
|8, 14, 8, 16,
|8, 14, 8, 22,
|8, 14, 8, 16,
|8, 16, 8, 20,
|8, 14, 8, 16,
|8, 10, 8, 16,
|8, 14, 8, 20,
|8, 14, 8, 22,
|8, 12, 8, 20,
|8, 12, 8, 16,
|10, 12, 10, 16|];
